100 8
725 863
117 760
811 985
339 612
478 285
162 379
715 811
365 116
294 818
387 238
775 264
180 263
352 302
751 621
331 762
643 883
611 769
643 583
725 429
81 368
232 282
754 995
463 754
687 172
292 850
448 886
813 104
916 478
659 992
384 524
185 297
382 788
398 200
286 70
654 891
581 824
204 538
154 355
713 983
159 617
298 757
63 470
666 114
714 102
368 565
476 762
366 853
72 519
418 747
140 454
266 689
212 259
593 773
700 155
781 445
135 520
457 787
405 779
518 713
311 686
287 753
284 869
329 881
897 577
487 216
216 95
64 436
143 360
241 135
128 384
600 747
819 542
633 892
403 759
541 867
253 879
661 517
139 392
706 552
537 767
757 788
165 856
712 209
246 871
266 793
696 540
283 913
177 898
249 876
388 244
120 364
752 623
86 453
329 829
239 776
280 769
42 443
792 534
426 491
695 138
